num_bands = 53
num_wann  = 24
dis_num_iter = 200
num_iter = 0

write_u_matrices = .true.

dis_froz_max = 19.6649
dis_froz_min = -200

exclude_bands = 1-8, 62-70

spinors = .true.

begin atoms_frac
Fe   0.0   0.0   0.0
end atoms_frac


begin projections
Fe:s,p,d
f= 0.50, 0.50, 0.00:s
f= 0.00, 0.50, 0.50:s
f= 0.50, 0.00, 0.50:s
end projections


begin unit_cell_cart
bohr
-2.700000   2.700000   2.700000
 2.700000  -2.700000   2.700000
 2.700000   2.700000  -2.700000
end unit_cell_cart

mp_grid : 4 4 4

begin kpoints
   0.0000000   0.0000000   0.0000000
   0.0000000   0.0000000   0.2500000
   0.0000000   0.0000000  -0.5000000
   0.0000000   0.0000000  -0.2500000
   0.0000000   0.2500000   0.0000000
   0.0000000   0.2500000   0.2500000
   0.0000000   0.2500000  -0.5000000
   0.0000000   0.2500000  -0.2500000
   0.0000000  -0.5000000   0.0000000
   0.0000000  -0.5000000   0.2500000
   0.0000000  -0.5000000  -0.5000000
   0.0000000  -0.5000000  -0.2500000
   0.0000000  -0.2500000   0.0000000
   0.0000000  -0.2500000   0.2500000
   0.0000000  -0.2500000  -0.5000000
   0.0000000  -0.2500000  -0.2500000
   0.2500000   0.0000000   0.0000000
   0.2500000   0.0000000   0.2500000
   0.2500000   0.0000000  -0.5000000
   0.2500000   0.0000000  -0.2500000
   0.2500000   0.2500000   0.0000000
   0.2500000   0.2500000   0.2500000
   0.2500000   0.2500000  -0.5000000
   0.2500000   0.2500000  -0.2500000
   0.2500000  -0.5000000   0.0000000
   0.2500000  -0.5000000   0.2500000
   0.2500000  -0.5000000  -0.5000000
   0.2500000  -0.5000000  -0.2500000
   0.2500000  -0.2500000   0.0000000
   0.2500000  -0.2500000   0.2500000
   0.2500000  -0.2500000  -0.5000000
   0.2500000  -0.2500000  -0.2500000
  -0.5000000   0.0000000   0.0000000
  -0.5000000   0.0000000   0.2500000
  -0.5000000   0.0000000  -0.5000000
  -0.5000000   0.0000000  -0.2500000
  -0.5000000   0.2500000   0.0000000
  -0.5000000   0.2500000   0.2500000
  -0.5000000   0.2500000  -0.5000000
  -0.5000000   0.2500000  -0.2500000
  -0.5000000  -0.5000000   0.0000000
  -0.5000000  -0.5000000   0.2500000
  -0.5000000  -0.5000000  -0.5000000
  -0.5000000  -0.5000000  -0.2500000
  -0.5000000  -0.2500000   0.0000000
  -0.5000000  -0.2500000   0.2500000
  -0.5000000  -0.2500000  -0.5000000
  -0.5000000  -0.2500000  -0.2500000
  -0.2500000   0.0000000   0.0000000
  -0.2500000   0.0000000   0.2500000
  -0.2500000   0.0000000  -0.5000000
  -0.2500000   0.0000000  -0.2500000
  -0.2500000   0.2500000   0.0000000
  -0.2500000   0.2500000   0.2500000
  -0.2500000   0.2500000  -0.5000000
  -0.2500000   0.2500000  -0.2500000
  -0.2500000  -0.5000000   0.0000000
  -0.2500000  -0.5000000   0.2500000
  -0.2500000  -0.5000000  -0.5000000
  -0.2500000  -0.5000000  -0.2500000
  -0.2500000  -0.2500000   0.0000000
  -0.2500000  -0.2500000   0.2500000
  -0.2500000  -0.2500000  -0.5000000
  -0.2500000  -0.2500000  -0.2500000
end kpoints
