&inputpp
   outdir   = './temp'
   prefix   = 'Fe'
   seedname = 'Fe'
   irr_bz   = .true.
spin_component = 'none'
/
