&inputpp
   prefix = 'diam'
   outdir = './temp'
   seedname = 'diam'
   spin_component = 'none'
   write_mmn = .true.
   write_amn = .true.
   wan_mode = 'library'
/
