 &control
    calculation = 'scf'
    restart_mode='from_scratch',
    prefix='diam',
    pseudo_dir='../pseudo',
    outdir='./temp',
 /
 &system
    ibrav=  2, celldm(1) =6.1, nat=  2, ntyp= 1,
    ecutwfc =40.0
 /
 &electrons
    diagonalization='david'
    mixing_mode = 'plain'
    conv_thr =  1.0d-13
 /
ATOMIC_SPECIES
 C  12.0  C.pz-vbc.UPF
ATOMIC_POSITIONS {crystal}
C  -0.25 -0.25 -0.25
C   0.0  0.0  0.0
K_POINTS {automatic}
 12 12 12 0 0 0
