&CONTROL
  calculation = 'bands'
  prefix = 'si'
  outdir = './temp/'
  pseudo_dir = '../pseudo/'
  verbosity = 'high'
/
&SYSTEM
  degauss =   1.0000000000d-02
  ecutwfc =   40
  ibrav = 0
  nat = 2
  nbnd = 40
  noinv = .true.
  nosym = .true.
  ntyp = 1
  occupations = 'smearing'
  smearing = 'cold'
/
&ELECTRONS
  conv_thr =   4.0000000000d-10
  diago_full_acc = .true.
  electron_maxstep = 80
  mixing_beta =   4.0000000000d-01
  startingpot = 'file'
/
ATOMIC_SPECIES
Si     28.085 Si.pbe-n-van.UPF
ATOMIC_POSITIONS angstrom
Si           4.0482056439       1.3494018813       4.0482056439 
Si           0.0000000000       0.0000000000       0.0000000000 
CELL_PARAMETERS angstrom
      0.0000000000       2.6988037626       2.6988037626
      2.6988037626       0.0000000000       2.6988037626
      2.6988037626       2.6988037626       0.0000000000
K_POINTS crystal
27
  0.000000000000  0.000000000000  0.000000000000  3.70370370e-02
  0.000000000000  0.000000000000  0.333333333333  3.70370370e-02
  0.000000000000  0.000000000000  0.666666666667  3.70370370e-02
  0.000000000000  0.333333333333  0.000000000000  3.70370370e-02
  0.000000000000  0.333333333333  0.333333333333  3.70370370e-02
  0.000000000000  0.333333333333  0.666666666667  3.70370370e-02
  0.000000000000  0.666666666667  0.000000000000  3.70370370e-02
  0.000000000000  0.666666666667  0.333333333333  3.70370370e-02
  0.000000000000  0.666666666667  0.666666666667  3.70370370e-02
  0.333333333333  0.000000000000  0.000000000000  3.70370370e-02
  0.333333333333  0.000000000000  0.333333333333  3.70370370e-02
  0.333333333333  0.000000000000  0.666666666667  3.70370370e-02
  0.333333333333  0.333333333333  0.000000000000  3.70370370e-02
  0.333333333333  0.333333333333  0.333333333333  3.70370370e-02
  0.333333333333  0.333333333333  0.666666666667  3.70370370e-02
  0.333333333333  0.666666666667  0.000000000000  3.70370370e-02
  0.333333333333  0.666666666667  0.333333333333  3.70370370e-02
  0.333333333333  0.666666666667  0.666666666667  3.70370370e-02
  0.666666666667  0.000000000000  0.000000000000  3.70370370e-02
  0.666666666667  0.000000000000  0.333333333333  3.70370370e-02
  0.666666666667  0.000000000000  0.666666666667  3.70370370e-02
  0.666666666667  0.333333333333  0.000000000000  3.70370370e-02
  0.666666666667  0.333333333333  0.333333333333  3.70370370e-02
  0.666666666667  0.333333333333  0.666666666667  3.70370370e-02
  0.666666666667  0.666666666667  0.000000000000  3.70370370e-02
  0.666666666667  0.666666666667  0.333333333333  3.70370370e-02
  0.666666666667  0.666666666667  0.666666666667  3.70370370e-02
