&INPUTPP
  outdir = './temp/'
  prefix = 'si'
  seedname = 'si'

  ! Projectability disentanglement
  atom_proj = .true.
  atom_proj_ext = .true.         ! use external projectors
  atom_proj_dir = './ext_proj'   ! dir for external projectors
  ! for excluding specific projectors
  ! this excludes 3d projectors, then the results are similar
  ! to that of using UPF file, i.e., project onto Si s+p orbitals
  ! for the indices of orbitals, see the pw2wan stdout
  atom_proj_exclude = 5 6 7 8 9 14 15 16 17 18
/
