&inputpp
   outdir = './temp'
   prefix = 'o2'
   seedname = 'o2'
   spin_component = 'down'
   write_mmn = .true.
   write_amn = .true.
   wan_mode = 'standalone'
   write_unkg = .true.
/
