&inputpp
   outdir = './temp'
   prefix = 'Fe'
   seedname = 'collinear_Fe'
   spin_component = 'up'
   write_mmn = .true.
   write_amn = .true.
/
