num_bands         =   4
num_wann          =   1
exclude_bands = 2-6, 8-12

bands_plot        = true
dis_win_max       = 70.0d0
dis_froz_max      =  30.0d0
dis_num_iter      =  500

num_iter          = 400

dis_mix_ratio = 1.0

begin atoms_frac
Fe  0.000  0.000  0.000
end atoms_frac

begin projections
Fe:s
end projections

begin kpoint_path
G 0.0000 0.0000 0.0000	 H 0.500 -0.5000 -0.5000
H 0.500 -0.5000 -0.5000	 P 0.7500 0.2500 -0.2500
P 0.7500 0.2500 -0.2500	 N 0.5000 0.0000 -0.5000
N 0.5000 0.0000 -0.5000	 G 0.0000 0.0000 0.000
G 0.0000 0.0000 0.000	 H 0.5 0.5 0.5
H 0.5 0.5 0.5		 N 0.5 0.0 0.0
N 0.5 0.0 0.0		 G 0.0 0.0 0.0
G 0.0 0.0 0.0		 P 0.75 0.25 -0.25
P 0.75 0.25 -0.25	 N 0.5 0.0 0.0
end kpoint_path

begin unit_cell_cart
bohr
 2.71175  2.71175 2.71175
-2.71175  2.71175 2.71175
-2.71175 -2.71175 2.71175
end unit_cell_cart

mp_grid =      2      2      2
begin kpoints
  0.00000000  0.00000000  0.00000000
  0.00000000  0.00000000  0.50000000
  0.00000000  0.50000000  0.00000000
  0.00000000  0.50000000  0.50000000
  0.50000000  0.00000000  0.00000000
  0.50000000  0.00000000  0.50000000
  0.50000000  0.50000000  0.00000000
  0.50000000  0.50000000  0.50000000
end kpoints
