&inputpp
   outdir = './temp'
   prefix = 'benzene'
   seedname = 'benzene'
   spin_component = 'none'
   write_mmn = .true.
   write_amn = .true.
   wan_mode = 'standalone'
   write_unkg = .true.
/
