&control
    calculation = 'nscf'
    prefix      = 'Cu'
    pseudo_dir  = '../pseudo/'
    outdir      = './temp/'
    verbosity = 'high'
/
&system
    ibrav       = 2
    celldm(1)   = 6.822
    nat         = 1
    ntyp        = 1
    ecutwfc     = 35.0
    ecutrho     = 150.0
    occupations = 'smearing'
    smearing    = 'm-p'
    degauss     = 0.01
    nbnd = 16
/
&electrons
    mixing_beta = 0.7
    conv_thr = 1.0d-10
/
ATOMIC_SPECIES
Cu  62.930 Cu.pbe-dn-kjpaw_psl.1.0.0.UPF
ATOMIC_POSITIONS {alat}
Cu 0.0 0.0 0.0
K_POINTS {automatic}
3 3 3 0 0 0
