&inputpp
    outdir   = './temp'
    prefix   = 'Cu'
    seedname = 'Cu'
    irr_bz   = .true.
/
