&inputpp
   outdir = './temp/'
   prefix = 'Pt'
   seedname = 'Pt'
   write_mmn = .true.
   write_amn = .true.
   write_spn = .false.

   ! SCDM keywords
   scdm_proj         = .true.
   scdm_entanglement = 'erfc'
   scdm_mu           = 35.
   scdm_sigma        =  5.
/
