shc_freq_scan = true
shc_alpha = 1
shc_beta = 2
shc_gamma = 3

fermi_energy = 7.9366

kubo_freq_min = 0.0
kubo_freq_max = 8.0
kubo_freq_step = 0.01
#kubo_eigval_max

# use scissors_shift
scissors_shift = 1.117
num_valence_bands = 8
# or use shc_bandshift
#shc_bandshift = true
#shc_bandshift_firstband = 9
#shc_bandshift_energyshift = 1.117

kubo_adpt_smr = true #false
kubo_adpt_smr_fac = 1.414
kubo_adpt_smr_max = 1.0
#kubo_smr_fixed_en_width = 0.05

exclude_bands = 1-10
num_bands         =   20
num_wann          =   16

dis_num_iter      =  8000

dis_conv_tol      = 1.0e-10
conv_tol          = 1.0e-10
conv_window       = 40

num_iter          = 20000

spinors = true

! use pseudo-atomic orbital projection
auto_projections = .true.

begin unit_cell_cart
bohr
-5.342256    0           5.342256
0            5.342256    5.342256
-5.342256    5.342256    0
end unit_cell_cart

begin atoms_frac
Ga 0.00   0.00   0.00
As 0.25   0.25   0.25
end atoms_frac

mp_grid =      3      3      3
begin kpoints
  0.00000000  0.00000000  0.00000000
  0.00000000  0.00000000  0.33333333
  0.00000000  0.00000000  0.66666667
  0.00000000  0.33333333  0.00000000
  0.00000000  0.33333333  0.33333333
  0.00000000  0.33333333  0.66666667
  0.00000000  0.66666667  0.00000000
  0.00000000  0.66666667  0.33333333
  0.00000000  0.66666667  0.66666667
  0.33333333  0.00000000  0.00000000
  0.33333333  0.00000000  0.33333333
  0.33333333  0.00000000  0.66666667
  0.33333333  0.33333333  0.00000000
  0.33333333  0.33333333  0.33333333
  0.33333333  0.33333333  0.66666667
  0.33333333  0.66666667  0.00000000
  0.33333333  0.66666667  0.33333333
  0.33333333  0.66666667  0.66666667
  0.66666667  0.00000000  0.00000000
  0.66666667  0.00000000  0.33333333
  0.66666667  0.00000000  0.66666667
  0.66666667  0.33333333  0.00000000
  0.66666667  0.33333333  0.33333333
  0.66666667  0.33333333  0.66666667
  0.66666667  0.66666667  0.00000000
  0.66666667  0.66666667  0.33333333
  0.66666667  0.66666667  0.66666667
end kpoints
