 &CONTROL
                 calculation = 'nscf'
                restart_mode = 'restart'
	              outdir = './temp/'
                  pseudo_dir = '../pseudo/'
                      prefix = 'GaAs'
 /
 &SYSTEM
                       ibrav = 2
                           a = 5.654
                         nat = 2
                        ntyp = 2
                        nbnd = 30
                     ecutwfc = 30
                     ecutrho = 240
                 occupations = 'smearing'
                    smearing = 'mv'
                     degauss = 0.002
                    noncolin = .true.
                    lspinorb = .true.
                       nosym = .true.
 /
 &ELECTRONS
                    conv_thr = 1.0D-8
 /

ATOMIC_SPECIES
   Ga     234.00000  Ga.rel-pbe-dn-kjpaw_psl.0.2.UPF 
   As     123.00000  As.rel-pbe-n-kjpaw_psl.0.2.UPF  
 
ATOMIC_POSITIONS {crystal}
Ga       0.00        0.00        0.00
As       0.25        0.25        0.25


K_POINTS crystal
27
  0.00000000  0.00000000  0.00000000  3.703704e-02
  0.00000000  0.00000000  0.33333333  3.703704e-02
  0.00000000  0.00000000  0.66666667  3.703704e-02
  0.00000000  0.33333333  0.00000000  3.703704e-02
  0.00000000  0.33333333  0.33333333  3.703704e-02
  0.00000000  0.33333333  0.66666667  3.703704e-02
  0.00000000  0.66666667  0.00000000  3.703704e-02
  0.00000000  0.66666667  0.33333333  3.703704e-02
  0.00000000  0.66666667  0.66666667  3.703704e-02
  0.33333333  0.00000000  0.00000000  3.703704e-02
  0.33333333  0.00000000  0.33333333  3.703704e-02
  0.33333333  0.00000000  0.66666667  3.703704e-02
  0.33333333  0.33333333  0.00000000  3.703704e-02
  0.33333333  0.33333333  0.33333333  3.703704e-02
  0.33333333  0.33333333  0.66666667  3.703704e-02
  0.33333333  0.66666667  0.00000000  3.703704e-02
  0.33333333  0.66666667  0.33333333  3.703704e-02
  0.33333333  0.66666667  0.66666667  3.703704e-02
  0.66666667  0.00000000  0.00000000  3.703704e-02
  0.66666667  0.00000000  0.33333333  3.703704e-02
  0.66666667  0.00000000  0.66666667  3.703704e-02
  0.66666667  0.33333333  0.00000000  3.703704e-02
  0.66666667  0.33333333  0.33333333  3.703704e-02
  0.66666667  0.33333333  0.66666667  3.703704e-02
  0.66666667  0.66666667  0.00000000  3.703704e-02
  0.66666667  0.66666667  0.33333333  3.703704e-02
  0.66666667  0.66666667  0.66666667  3.703704e-02
