&inputpp
  outdir     =  './temp'
  prefix     =  'si'
  seedname   =  'si'
  write_amn  = .true.
  write_mmn  = .false.
  write_unk  = .false.
  ! SCDM keywords
  scdm_proj         = true
  scdm_entanglement = gaussian
  scdm_mu           = 12.5
  scdm_sigma        =  2
/
