Silicon
 &control
    calculation     =  'scf'
    restart_mode    =  'from_scratch'
    prefix          =  'si'
    tprnfor         =  .true.
    pseudo_dir      =  '../pseudo/'
    outdir          =  './temp'
    iprint          =   2
    verbosity = 'high'
/
 &system
    ibrav           =   2
    celldm(1)       =  10.2
    nat             =   2
    ntyp            =   1
    ecutwfc         =  25.0
/
 &electrons
    conv_thr        =   1.0d-12
/
ATOMIC_SPECIES
 Si  28  Si_ONCV_PBE-1.0.upf
ATOMIC_POSITIONS {crystal}
Si  -0.25   0.75   -0.25
Si   0.00   0.00    0.00
K_POINTS {automatic}
6 6 6 0 0 0
