exclude_bands = 1-10
num_bands         =   10
num_wann          =   8

dis_num_iter      =  8000

dis_conv_tol      = 1.0e-10
conv_tol          = 1.0e-10
conv_window       = 40

num_iter          = 20000
guiding_centres = T

spinors = false
begin projections
As:sp3
Ga:sp3
end projections

begin unit_cell_cart
bohr
-5.342256    0           5.342256
0            5.342256    5.342256
-5.342256    5.342256    0
end unit_cell_cart

begin atoms_frac
Ga 0.00   0.00   0.00
As 0.25   0.25   0.25
end atoms_frac

mp_grid =      3      3      3
begin kpoints
  0.00000000  0.00000000  0.00000000
  0.00000000  0.00000000  0.33333333
  0.00000000  0.00000000  0.66666667
  0.00000000  0.33333333  0.00000000
  0.00000000  0.33333333  0.33333333
  0.00000000  0.33333333  0.66666667
  0.00000000  0.66666667  0.00000000
  0.00000000  0.66666667  0.33333333
  0.00000000  0.66666667  0.66666667
  0.33333333  0.00000000  0.00000000
  0.33333333  0.00000000  0.33333333
  0.33333333  0.00000000  0.66666667
  0.33333333  0.33333333  0.00000000
  0.33333333  0.33333333  0.33333333
  0.33333333  0.33333333  0.66666667
  0.33333333  0.66666667  0.00000000
  0.33333333  0.66666667  0.33333333
  0.33333333  0.66666667  0.66666667
  0.66666667  0.00000000  0.00000000
  0.66666667  0.00000000  0.33333333
  0.66666667  0.00000000  0.66666667
  0.66666667  0.33333333  0.00000000
  0.66666667  0.33333333  0.33333333
  0.66666667  0.33333333  0.66666667
  0.66666667  0.66666667  0.00000000
  0.66666667  0.66666667  0.33333333
  0.66666667  0.66666667  0.66666667
end kpoints
